certificates/rado_a15_c175_N45.cnf
c Rad2 upper bound instance: x1 + 15*x2 - x3 = 175, interval [1,45]
p cnf 45 270
1 6 12 0
-1 -6 -12 0
1 13 21 0
-1 -13 -21 0
1 14 36 0
-1 -14 -36 0
2 7 12 0
-2 -7 -12 0
2 13 22 0
-2 -13 -22 0
2 14 37 0
-2 -14 -37 0
3 8 12 0
-3 -8 -12 0
3 13 23 0
-3 -13 -23 0
3 14 38 0
-3 -14 -38 0
4 9 12 0
-4 -9 -12 0
4 13 24 0
-4 -13 -24 0
4 14 39 0
-4 -14 -39 0
5 10 12 0
-5 -10 -12 0
5 13 25 0
-5 -13 -25 0
5 14 40 0
-5 -14 -40 0
6 11 12 0
-6 -11 -12 0
6 13 26 0
-6 -13 -26 0
6 14 41 0
-6 -14 -41 0
7 12 0
-7 -12 0
7 13 27 0
-7 -13 -27 0
7 14 42 0
-7 -14 -42 0
8 12 13 0
-8 -12 -13 0
8 13 28 0
-8 -13 -28 0
8 14 43 0
-8 -14 -43 0
9 12 14 0
-9 -12 -14 0
9 13 29 0
-9 -13 -29 0
9 14 44 0
-9 -14 -44 0
10 12 15 0
-10 -12 -15 0
10 13 30 0
-10 -13 -30 0
10 14 45 0
-10 -14 -45 0
1 11 0
-1 -11 0
11 12 16 0
-11 -12 -16 0
11 13 31 0
-11 -13 -31 0
2 11 12 0
-2 -11 -12 0
12 17 0
-12 -17 0
12 13 32 0
-12 -13 -32 0
3 11 13 0
-3 -11 -13 0
12 13 18 0
-12 -13 -18 0
13 33 0
-13 -33 0
4 11 14 0
-4 -11 -14 0
12 14 19 0
-12 -14 -19 0
13 14 34 0
-13 -14 -34 0
5 11 15 0
-5 -11 -15 0
12 15 20 0
-12 -15 -20 0
13 15 35 0
-13 -15 -35 0
6 11 16 0
-6 -11 -16 0
12 16 21 0
-12 -16 -21 0
13 16 36 0
-13 -16 -36 0
7 11 17 0
-7 -11 -17 0
12 17 22 0
-12 -17 -22 0
13 17 37 0
-13 -17 -37 0
8 11 18 0
-8 -11 -18 0
12 18 23 0
-12 -18 -23 0
13 18 38 0
-13 -18 -38 0
9 11 19 0
-9 -11 -19 0
12 19 24 0
-12 -19 -24 0
13 19 39 0
-13 -19 -39 0
10 11 20 0
-10 -11 -20 0
12 20 25 0
-12 -20 -25 0
13 20 40 0
-13 -20 -40 0
11 21 0
-11 -21 0
12 21 26 0
-12 -21 -26 0
13 21 41 0
-13 -21 -41 0
11 12 22 0
-11 -12 -22 0
12 22 27 0
-12 -22 -27 0
13 22 42 0
-13 -22 -42 0
11 13 23 0
-11 -13 -23 0
12 23 28 0
-12 -23 -28 0
13 23 43 0
-13 -23 -43 0
11 14 24 0
-11 -14 -24 0
12 24 29 0
-12 -24 -29 0
13 24 44 0
-13 -24 -44 0
11 15 25 0
-11 -15 -25 0
12 25 30 0
-12 -25 -30 0
13 25 45 0
-13 -25 -45 0
1 10 26 0
-1 -10 -26 0
11 16 26 0
-11 -16 -26 0
12 26 31 0
-12 -26 -31 0
2 10 27 0
-2 -10 -27 0
11 17 27 0
-11 -17 -27 0
12 27 32 0
-12 -27 -32 0
3 10 28 0
-3 -10 -28 0
11 18 28 0
-11 -18 -28 0
12 28 33 0
-12 -28 -33 0
4 10 29 0
-4 -10 -29 0
11 19 29 0
-11 -19 -29 0
12 29 34 0
-12 -29 -34 0
5 10 30 0
-5 -10 -30 0
11 20 30 0
-11 -20 -30 0
12 30 35 0
-12 -30 -35 0
6 10 31 0
-6 -10 -31 0
11 21 31 0
-11 -21 -31 0
12 31 36 0
-12 -31 -36 0
7 10 32 0
-7 -10 -32 0
11 22 32 0
-11 -22 -32 0
12 32 37 0
-12 -32 -37 0
8 10 33 0
-8 -10 -33 0
11 23 33 0
-11 -23 -33 0
12 33 38 0
-12 -33 -38 0
9 10 34 0
-9 -10 -34 0
11 24 34 0
-11 -24 -34 0
12 34 39 0
-12 -34 -39 0
10 35 0
-10 -35 0
11 25 35 0
-11 -25 -35 0
12 35 40 0
-12 -35 -40 0
10 11 36 0
-10 -11 -36 0
11 26 36 0
-11 -26 -36 0
12 36 41 0
-12 -36 -41 0
10 12 37 0
-10 -12 -37 0
11 27 37 0
-11 -27 -37 0
12 37 42 0
-12 -37 -42 0
10 13 38 0
-10 -13 -38 0
11 28 38 0
-11 -28 -38 0
12 38 43 0
-12 -38 -43 0
10 14 39 0
-10 -14 -39 0
11 29 39 0
-11 -29 -39 0
12 39 44 0
-12 -39 -44 0
10 15 40 0
-10 -15 -40 0
11 30 40 0
-11 -30 -40 0
12 40 45 0
-12 -40 -45 0
1 9 41 0
-1 -9 -41 0
10 16 41 0
-10 -16 -41 0
11 31 41 0
-11 -31 -41 0
2 9 42 0
-2 -9 -42 0
10 17 42 0
-10 -17 -42 0
11 32 42 0
-11 -32 -42 0
3 9 43 0
-3 -9 -43 0
10 18 43 0
-10 -18 -43 0
11 33 43 0
-11 -33 -43 0
4 9 44 0
-4 -9 -44 0
10 19 44 0
-10 -19 -44 0
11 34 44 0
-11 -34 -44 0
5 9 45 0
-5 -9 -45 0
10 20 45 0
-10 -20 -45 0
11 35 45 0
-11 -35 -45 0
