certificates/rado_a15_c175_N45.drat
12 -42 -44 0
-42 -44 -45 0
17 42 -45 0
42 -45 0
d 17 42 -45 0
-17 -45 0
-45 0
17 -42 0
-42 0
-17 0
12 0
10 0
-7 0
-5 0
-15 0
-35 0
-37 0
14 0
11 0
9 0
13 0
-19 0
-24 0
-39 0
-4 0
0
